\ This file has been generated by DOcplex
\ ENCODING=ISO-8859-1
\Problem name: random_problem.lp

Minimize
 obj: - 254 x0 - 127 x1 + 138 x2 + 69 x3 + 628 x4 + 314 x5 - 242 x6 - 121 x7
      + 400 x8 + 200 x9 - 138 x10 - 69 x11 - 236 x12 - 118 x13 - 474 x14
      - 237 x15 - 732 x16 - 366 x17 + 230 x18 + 115 x19 - 698 x20 - 349 x21
      + 116 x22 + 58 x23 + [ 176 x0^2 + 176 x0*x1 + 224 x0*x2 + 112 x0*x3
      + 128 x0*x4 + 64 x0*x5 + 288 x0*x6 + 144 x0*x7 + 496 x0*x8 + 248 x0*x9
      + 240 x0*x10 + 120 x0*x11 - 32 x0*x12 - 16 x0*x13 + 464 x0*x14
      + 232 x0*x15 + 448 x0*x16 + 224 x0*x17 + 464 x0*x18 + 232 x0*x19
      + 80 x0*x20 + 40 x0*x21 + 16 x0*x22 + 8 x0*x23 + 44 x1^2 + 112 x1*x2
      + 56 x1*x3 + 64 x1*x4 + 32 x1*x5 + 144 x1*x6 + 72 x1*x7 + 248 x1*x8
      + 124 x1*x9 + 120 x1*x10 + 60 x1*x11 - 16 x1*x12 - 8 x1*x13 + 232 x1*x14
      + 116 x1*x15 + 224 x1*x16 + 112 x1*x17 + 232 x1*x18 + 116 x1*x19
      + 40 x1*x20 + 20 x1*x21 + 8 x1*x22 + 4 x1*x23 + 1128 x2^2 + 1128 x2*x3
      + 896 x2*x4 + 448 x2*x5 + 304 x2*x6 + 152 x2*x7 + 1888 x2*x8 + 944 x2*x9
      - 304 x2*x10 - 152 x2*x11 - 96 x2*x12 - 48 x2*x13 + 960 x2*x14
      + 480 x2*x15 + 544 x2*x16 + 272 x2*x17 + 368 x2*x18 + 184 x2*x19
      - 176 x2*x20 - 88 x2*x21 + 896 x2*x22 + 448 x2*x23 + 282 x3^2 + 448 x3*x4
      + 224 x3*x5 + 152 x3*x6 + 76 x3*x7 + 944 x3*x8 + 472 x3*x9 - 152 x3*x10
      - 76 x3*x11 - 48 x3*x12 - 24 x3*x13 + 480 x3*x14 + 240 x3*x15 + 272 x3*x16
      + 136 x3*x17 + 184 x3*x18 + 92 x3*x19 - 88 x3*x20 - 44 x3*x21 + 448 x3*x22
      + 224 x3*x23 + 2112 x4^2 + 2112 x4*x5 - 192 x4*x6 - 96 x4*x7 + 1904 x4*x8
      + 952 x4*x9 + 416 x4*x10 + 208 x4*x11 + 192 x4*x12 + 96 x4*x13
      + 1424 x4*x14 + 712 x4*x15 + 544 x4*x18 + 272 x4*x19 - 272 x4*x20
      - 136 x4*x21 + 560 x4*x22 + 280 x4*x23 + 528 x5^2 - 96 x5*x6 - 48 x5*x7
      + 952 x5*x8 + 476 x5*x9 + 208 x5*x10 + 104 x5*x11 + 96 x5*x12 + 48 x5*x13
      + 712 x5*x14 + 356 x5*x15 + 272 x5*x18 + 136 x5*x19 - 136 x5*x20
      - 68 x5*x21 + 280 x5*x22 + 140 x5*x23 + 672 x6^2 + 672 x6*x7 + 1008 x6*x8
      + 504 x6*x9 + 320 x6*x10 + 160 x6*x11 + 400 x6*x12 + 200 x6*x13
      + 864 x6*x14 + 432 x6*x15 + 720 x6*x16 + 360 x6*x17 + 912 x6*x18
      + 456 x6*x19 + 528 x6*x20 + 264 x6*x21 + 112 x6*x22 + 56 x6*x23 + 168 x7^2
      + 504 x7*x8 + 252 x7*x9 + 160 x7*x10 + 80 x7*x11 + 200 x7*x12 + 100 x7*x13
      + 432 x7*x14 + 216 x7*x15 + 360 x7*x16 + 180 x7*x17 + 456 x7*x18
      + 228 x7*x19 + 264 x7*x20 + 132 x7*x21 + 56 x7*x22 + 28 x7*x23 + 2528 x8^2
      + 2528 x8*x9 + 224 x8*x10 + 112 x8*x11 + 112 x8*x12 + 56 x8*x13
      + 2176 x8*x14 + 1088 x8*x15 + 1632 x8*x16 + 816 x8*x17 + 800 x8*x18
      + 400 x8*x19 + 384 x8*x20 + 192 x8*x21 + 896 x8*x22 + 448 x8*x23
      + 632 x9^2 + 112 x9*x10 + 56 x9*x11 + 56 x9*x12 + 28 x9*x13 + 1088 x9*x14
      + 544 x9*x15 + 816 x9*x16 + 408 x9*x17 + 400 x9*x18 + 200 x9*x19
      + 192 x9*x20 + 96 x9*x21 + 448 x9*x22 + 224 x9*x23 + 592 x10^2
      + 592 x10*x11 - 16 x10*x12 - 8 x10*x13 + 688 x10*x14 + 344 x10*x15
      + 464 x10*x16 + 232 x10*x17 + 608 x10*x18 + 304 x10*x19 + 192 x10*x20
      + 96 x10*x21 - 160 x10*x22 - 80 x10*x23 + 148 x11^2 - 8 x11*x12
      - 4 x11*x13 + 344 x11*x14 + 172 x11*x15 + 232 x11*x16 + 116 x11*x17
      + 304 x11*x18 + 152 x11*x19 + 96 x11*x20 + 48 x11*x21 - 80 x11*x22
      - 40 x11*x23 + 464 x12^2 + 464 x12*x13 + 384 x12*x14 + 192 x12*x15
      - 208 x12*x16 - 104 x12*x17 + 112 x12*x18 + 56 x12*x19 + 48 x12*x20
      + 24 x12*x21 + 208 x12*x22 + 104 x12*x23 + 116 x13^2 + 192 x13*x14
      + 96 x13*x15 - 104 x13*x16 - 52 x13*x17 + 56 x13*x18 + 28 x13*x19
      + 24 x13*x20 + 12 x13*x21 + 104 x13*x22 + 52 x13*x23 + 1096 x14^2
      + 1096 x14*x15 + 1008 x14*x16 + 504 x14*x17 + 1056 x14*x18 + 528 x14*x19
      + 240 x14*x20 + 120 x14*x21 + 320 x14*x22 + 160 x14*x23 + 274 x15^2
      + 504 x15*x16 + 252 x15*x17 + 528 x15*x18 + 264 x15*x19 + 120 x15*x20
      + 60 x15*x21 + 160 x15*x22 + 80 x15*x23 + 632 x16^2 + 632 x16*x17
      + 688 x16*x18 + 344 x16*x19 + 112 x16*x20 + 56 x16*x21 + 96 x16*x22
      + 48 x16*x23 + 158 x17^2 + 344 x17*x18 + 172 x17*x19 + 56 x17*x20
      + 28 x17*x21 + 48 x17*x22 + 24 x17*x23 + 1000 x18^2 + 1000 x18*x19
      + 320 x18*x20 + 160 x18*x21 - 160 x18*x22 - 80 x18*x23 + 250 x19^2
      + 160 x19*x20 + 80 x19*x21 - 80 x19*x22 - 40 x19*x23 + 472 x20^2
      + 472 x20*x21 - 112 x20*x22 - 56 x20*x23 + 118 x21^2 - 56 x21*x22
      - 28 x21*x23 + 560 x22^2 + 560 x22*x23 + 140 x23^2 ]/2
Subject To
 c0: 2 x0 + x1 + 2 x2 + x3 + 2 x4 + x5 + 2 x6 + x7 + 2 x8 + x9 + 2 x10 + x11
     + 2 x12 + x13 + 2 x14 + x15 + 2 x16 + x17 + 2 x18 + x19 + 2 x20 + x21
     + 2 x22 + x23 = 3

Bounds
 0 <= x0 <= 1
 0 <= x1 <= 1
 0 <= x2 <= 1
 0 <= x3 <= 1
 0 <= x4 <= 1
 0 <= x5 <= 1
 0 <= x6 <= 1
 0 <= x7 <= 1
 0 <= x8 <= 1
 0 <= x9 <= 1
 0 <= x10 <= 1
 0 <= x11 <= 1
 0 <= x12 <= 1
 0 <= x13 <= 1
 0 <= x14 <= 1
 0 <= x15 <= 1
 0 <= x16 <= 1
 0 <= x17 <= 1
 0 <= x18 <= 1
 0 <= x19 <= 1
 0 <= x20 <= 1
 0 <= x21 <= 1
 0 <= x22 <= 1
 0 <= x23 <= 1

Binaries
 x0 x1 x2 x3 x4 x5 x6 x7 x8 x9 x10 x11 x12 x13 x14 x15 x16 x17 x18 x19 x20 x21
 x22 x23
End
